%nprocshared=16
%mem=16GB
#p b3lyp/6-31g(d,p) pop=mk iop(6/50=1,6/41=10,6/42=17) scf=tight

Title Card Required

0 1
 O                  0.00000000    0.00000000    0.11918800
 H                  0.00000000    0.75928600   -0.47675400
 H                  0.00000000   -0.75928600   -0.47675400
 
test_mk-50.esp 
 
test_mk-50.esp 




 
